Problem:    
Rows:       113
Columns:    45 (34 integer, 34 binary)
Non-zeros:  356
Status:     INTEGER OPTIMAL
Objective:  value = 10.033878 (MINimum)

   No.   Row name        Activity     Lower bound   Upper bound
------ ------------    ------------- ------------- -------------
     1 r.5                   1010.03             0               
     2 r.6                  -997.319      -998.514               
     3 r.7                   10.0339             0               
     4 r.8                   10.0339      -998.901               
     5 r.9                   10.0339             0               
     6 r.10                  10.0339      -986.814               
     7 r.11                  1010.03             0               
     8 r.12                 -989.966      -993.329               
     9 r.13                  1010.03             0               
    10 r.14                 -989.966      -992.647               
    11 r.15                  10.0339             0               
    12 r.16                  10.0339      -996.125               
    13 r.17                  10.0339             0               
    14 r.18                  10.0339      -997.934               
    15 r.19                  1010.03             0               
    16 r.20                 -996.637      -998.369               
    17 r.21                  10.0339             0               
    18 r.22                  2.37748      -999.798               
    19 r.23                  1010.03             0               
    20 r.24                 -999.535      -999.535               
    21 r.25                        1             1             = 
    22 r.26                        1             1             = 
    23 r.27                        1             1             = 
    24 r.28                        1             1             = 
    25 r.29                        1             1             = 
    26 r.30                     1001             2               
    27 r.31                    -1001         -1001               
    28 r.32                  2007.35      -986.814               
    29 r.33                     1001             2               
    30 r.34                    -1001         -1001               
    31 r.35                     2000      -993.329               
    32 r.36                        2             2               
    33 r.37                       -2         -1001               
    34 r.38                 -992.647      -992.647               
    35 r.39                     1000             2               
    36 r.40                    -1000         -1001               
    37 r.41                     2000      -996.125               
    38 r.42                     1001             2               
    39 r.43                    -1001         -1001               
    40 r.44                  2007.35      -997.934               
    41 r.45                     1001             2               
    42 r.46                    -1001         -1001               
    43 r.47                  1993.33      -998.369               
    44 r.48                 -998.514      -998.514               
    45 r.49                   8.8383      -998.901               
    46 r.50                 -998.514      -998.514               
    47 r.51                   8.8383      -998.901               
    48 r.52                     1001             2               
    49 r.53                    -1001         -1001               
    50 r.54                  1992.65        1.4857               
    51 r.55                     1001             2               
    52 r.56                    -1001         -1001               
    53 r.57                     2000       1.09878               
    54 r.58                     1001             2               
    55 r.59                    -1001         -1001               
    56 r.60                     2000      -992.647               
    57 r.61                     1001             2               
    58 r.62                    -1001         -1001               
    59 r.63                     2000      -996.125               
    60 r.64                     1000             2               
    61 r.65                    -1000         -1001               
    62 r.66                     2000      -997.934               
    63 r.67                        2             2               
    64 r.68                       -2         -1001               
    65 r.69                 -6.67122      -998.369               
    66 r.70                   8.8383      -986.814               
    67 r.71                 -991.162      -993.329               
    68 r.72                   8.8383      -986.814               
    69 r.73                 -991.162      -993.329               
    70 r.74                        2             2               
    71 r.75                       -2         -1001               
    72 r.76                  992.647        1.4857               
    73 r.77                     1000             2               
    74 r.78                    -1000         -1001               
    75 r.79                     2000       1.09878               
    76 r.80                     1001             2               
    77 r.81                    -1001         -1001               
    78 r.82                     2000        13.186               
    79 r.83                     1001             2               
    80 r.84                    -1001         -1001               
    81 r.85                     2000       6.67122               
    82 r.86                     1001             2               
    83 r.87                    -1001         -1001               
    84 r.88                     2000      -997.934               
    85 r.89                     1001             2               
    86 r.90                    -1001         -1001               
    87 r.91                  1993.33      -998.369               
    88 r.92                 -991.162      -992.647               
    89 r.93                   8.8383      -996.125               
    90 r.94                 -991.162      -992.647               
    91 r.95                   8.8383      -996.125               
    92 r.96                     1001             2               
    93 r.97                    -1001         -1001               
    94 r.98                  1992.65        1.4857               
    95 r.99                     1001             2               
    96 r.100                   -1001         -1001               
    97 r.101                 2006.67       1.09878               
    98 r.102                    1000             2               
    99 r.103                   -1000         -1001               
   100 r.104                    2000        13.186               
   101 r.105                       2             2               
   102 r.106                      -2         -1001               
   103 r.107                 6.67122       6.67122               
   104 r.108                    1001             2               
   105 r.109                   -1001         -1001               
   106 r.110                    2000        7.3526               
   107 r.111                    1001             2               
   108 r.112                   -1001         -1001               
   109 r.113                 2006.67       3.87519               
   110 r.114                  8.8383      -997.934               
   111 r.115                -997.833      -998.369               
   112 r.116                  8.8383      -997.934               
   113 r.117                -997.833      -998.369               

   No. Column name       Activity     Lower bound   Upper bound
------ ------------    ------------- ------------- -------------
     1 tt                    10.0339             0               
     2 s_1_1        *              1             0             1 
     3 t_1_1                  7.3526             0               
     4 s_2_1        *              0             0             1 
     5 t_2_1                       0             0               
     6 s_1_2        *              0             0             1 
     7 t_1_2                       0             0               
     8 s_2_2        *              1             0             1 
     9 t_2_2                       0             0               
    10 s_1_3        *              1             0             1 
    11 t_1_3                       0             0               
    12 s_2_3        *              0             0             1 
    13 t_2_3                       0             0               
    14 s_1_4        *              0             0             1 
    15 t_1_4                       0             0               
    16 s_2_4        *              1             0             1 
    17 t_2_4                 6.67122             0               
    18 s_1_5        *              0             0             1 
    19 t_1_5                  8.8383             0               
    20 s_2_5        *              1             0             1 
    21 t_2_5                  8.8383             0               
    22 r_1_1_2      *              1             0             1 
    23 u_1_1_2      *              0             0             1 
    24 r_2_1_2      *              1             0             1 
    25 u_2_1_2      *              0             0             1 
    26 r_1_1_3      *              0             0             1 
    27 u_1_1_3      *              1             0             1 
    28 r_2_1_3      *              1             0             1 
    29 u_2_1_3      *              0             0             1 
    30 r_1_1_4      *              1             0             1 
    31 u_1_1_4      *              0             0             1 
    32 r_2_1_4      *              1             0             1 
    33 u_2_1_4      *              0             0             1 
    34 r_1_2_3      *              1             0             1 
    35 u_1_2_3      *              0             0             1 
    36 r_2_2_3      *              1             0             1 
    37 u_2_2_3      *              0             0             1 
    38 r_1_2_4      *              1             0             1 
    39 u_1_2_4      *              0             0             1 
    40 r_2_2_4      *              0             0             1 
    41 u_2_2_4      *              0             0             1 
    42 r_1_3_4      *              1             0             1 
    43 u_1_3_4      *              0             0             1 
    44 r_2_3_4      *              1             0             1 
    45 u_2_3_4      *              0             0             1 

Integer feasibility conditions:

KKT.PE: max.abs.err = 1.14e-13 on row 16
        max.rel.err = 5.64e-17 on row 16
        High quality

KKT.PB: max.abs.err = 0.00e+00 on row 0
        max.rel.err = 0.00e+00 on row 0
        High quality

End of output
